/* Objective function */
min: +0.398 C2 +2119.92 C4 +0.398 C6 +2119.92 C8 +0.398 C10 +2119.92 C12 +0.398 C14 +2119.92 C16 +0.398 C18
 +2119.92 C20 +0.398 C22 +2119.92 C24 +0.398 C26 +2119.92 C28 +0.398 C30 +2119.92 C32;

/* Constraints */
+C1 +C3 >= 10;
+C5 +C7 >= 10;
+C9 +C11 >= 109;
+C13 +C15 >= 20;
+C17 +C19 >= 30;
+C21 +C23 >= 40;
+C25 +C27 >= 50;
+C29 +C31 >= 75;
+C1 -C2 = 0;
+C3 -C4 = 0;
+C5 -C6 = 0;
-C4 +C7 -C8 = 0;
+C9 -C10 = 0;
-C4 -C8 +C11 -C12 = 0;
+C13 -C14 = 0;
-C4 -C8 -C12 +C15 -C16 = 0;
+C17 -C18 = 0;
-C4 -C8 -C12 -C16 +C19 -C20 = 0;
+C21 -C22 = 0;
-C4 -C8 -C12 -C16 -C20 +C23 -C24 = 0;
+C25 -C26 = 0;
-C4 -C8 -C12 -C16 -C20 -C24 +C27 -C28 = 0;
+C29 -C30 = 0;
-C4 -C8 -C12 -C16 -C20 -C24 -C28 +C31 -C32 = 0;

/* Integer definitions */
int C1,C2,C3,C4,C5,C6,C7,C8,C9,C10,C11,C12,C13,C14,C15,C16,C17,C18,C19,C20,C21,C22,C23,C24,C25,C26,C27,C28,C29,C30,C31,C32;
